unsat
(forall ((A (_ BitVec 1))
         (B (_ BitVec 1))
         (C (_ BitVec 4))
         (D (_ BitVec 23))
         (E (_ BitVec 1))
         (F (_ BitVec 1))
         (G (_ BitVec 1))
         (H (_ BitVec 1))
         (I (_ BitVec 4))
         (J (_ BitVec 1))
         (K (_ BitVec 4))
         (L (_ BitVec 1))
         (M (_ BitVec 32))
         (N (_ BitVec 1))
         (O (_ BitVec 1))
         (P (_ BitVec 1))
         (Q (_ BitVec 1))
         (R (_ BitVec 5))
         (S (_ BitVec 1))
         (T (_ BitVec 1))
         (U (_ BitVec 5))
         (V (_ BitVec 1))
         (W (_ BitVec 1))
         (X (_ BitVec 1))
         (Y (_ BitVec 1))
         (Z (_ BitVec 1))
         (A1 (_ BitVec 1))
         (B1 (_ BitVec 5))
         (C1 (_ BitVec 64))
         (D1 (_ BitVec 32))
         (E1 (_ BitVec 1))
         (F1 (_ BitVec 1))
         (G1 (_ BitVec 32))
         (H1 (_ BitVec 1))
         (I1 (_ BitVec 1))
         (J1 (_ BitVec 1))
         (K1 (_ BitVec 32))
         (L1 (_ BitVec 30))
         (M1 (_ BitVec 30))
         (N1 (_ BitVec 1))
         (O1 (_ BitVec 32))
         (P1 (_ BitVec 32))
         (Q1 (_ BitVec 1))
         (R1 (_ BitVec 1))
         (S1 (_ BitVec 1))
         (T1 (_ BitVec 1))
         (U1 (_ BitVec 15))
         (V1 (_ BitVec 1))
         (W1 (_ BitVec 5))
         (X1 (_ BitVec 1))
         (Y1 (_ BitVec 30))
         (Z1 (_ BitVec 1))
         (A2 (_ BitVec 7))
         (B2 (_ BitVec 1))
         (C2 (_ BitVec 1))
         (D2 (_ BitVec 1))
         (E2 (_ BitVec 1))
         (F2 (_ BitVec 32))
         (G2 (_ BitVec 1))
         (H2 (_ BitVec 1))
         (I2 (_ BitVec 1))
         (J2 (_ BitVec 1))
         (K2 (_ BitVec 1))
         (L2 (_ BitVec 1))
         (M2 (_ BitVec 5))
         (N2 (_ BitVec 1))
         (O2 (_ BitVec 1))
         (P2 (_ BitVec 1))
         (Q2 (_ BitVec 32))
         (R2 (_ BitVec 4))
         (S2 (_ BitVec 7))
         (T2 (_ BitVec 32))
         (U2 (_ BitVec 1))
         (V2 (_ BitVec 1))
         (W2 (_ BitVec 1))
         (X2 (_ BitVec 1))
         (Y2 (_ BitVec 1))
         (Z2 (_ BitVec 1))
         (A3 (_ BitVec 5))
         (B3 (_ BitVec 1))
         (C3 (_ BitVec 1))
         (D3 (_ BitVec 1))
         (E3 (_ BitVec 2))
         (F3 (_ BitVec 1))
         (G3 (_ BitVec 5))
         (H3 (_ BitVec 23))
         (I3 (_ BitVec 1))
         (J3 (_ BitVec 5))
         (K3 (_ BitVec 6))
         (L3 (_ BitVec 1))
         (M3 (_ BitVec 1))
         (N3 (_ BitVec 1))
         (O3 (_ BitVec 1))
         (P3 (_ BitVec 7))
         (Q3 (_ BitVec 2))
         (R3 (_ BitVec 1))
         (S3 (_ BitVec 1))
         (T3 (_ BitVec 1))
         (U3 (_ BitVec 32))
         (V3 (_ BitVec 1))
         (W3 (_ BitVec 1))
         (X3 (_ BitVec 1))
         (Y3 (_ BitVec 2))
         (Z3 (_ BitVec 1))
         (A4 (_ BitVec 2))
         (B4 (_ BitVec 1))
         (C4 (_ BitVec 4))
         (D4 (_ BitVec 4))
         (E4 (_ BitVec 32))
         (F4 (_ BitVec 1))
         (G4 (_ BitVec 1))
         (H4 (_ BitVec 1))
         (I4 (_ BitVec 1))
         (J4 (_ BitVec 32))
         (K4 (_ BitVec 1))
         (L4 (_ BitVec 32))
         (M4 (_ BitVec 1))
         (N4 (_ BitVec 1))
         (O4 (_ BitVec 1))
         (P4 (_ BitVec 1))
         (Q4 (_ BitVec 1))
         (R4 (_ BitVec 6))
         (S4 (_ BitVec 1))
         (T4 (_ BitVec 1))
         (U4 (_ BitVec 8))
         (V4 (_ BitVec 32))
         (W4 (_ BitVec 1))
         (X4 (_ BitVec 1))
         (Y4 (_ BitVec 1))
         (Z4 (_ BitVec 1))
         (A5 (_ BitVec 1))
         (B5 (_ BitVec 1))
         (C5 (_ BitVec 1))
         (D5 (_ BitVec 4))
         (E5 (_ BitVec 32))
         (F5 (_ BitVec 1))
         (G5 (_ BitVec 1))
         (H5 (_ BitVec 4))
         (I5 (_ BitVec 5))
         (J5 (_ BitVec 1))
         (K5 (_ BitVec 1))
         (L5 (_ BitVec 1))
         (M5 (_ BitVec 1))
         (N5 (_ BitVec 32))
         (O5 (_ BitVec 1))
         (P5 (_ BitVec 32))
         (Q5 (_ BitVec 1))
         (R5 (_ BitVec 3))
         (S5 (_ BitVec 1))
         (T5 (_ BitVec 1))
         (U5 (_ BitVec 1))
         (V5 (_ BitVec 2))
         (W5 (_ BitVec 1))
         (X5 (_ BitVec 1))
         (Y5 (_ BitVec 1))
         (Z5 (_ BitVec 7))
         (A6 (_ BitVec 1))
         (B6 (_ BitVec 32))
         (C6 (_ BitVec 32))
         (D6 (_ BitVec 1))
         (E6 (_ BitVec 1))
         (F6 (_ BitVec 7))
         (G6 (_ BitVec 1))
         (H6 (Array (_ BitVec 5) (_ BitVec 32)))
         (I6 (_ BitVec 1))
         (J6 (_ BitVec 32))
         (K6 (_ BitVec 1))
         (L6 (_ BitVec 32))
         (M6 (_ BitVec 1))
         (N6 (_ BitVec 1))
         (O6 (_ BitVec 1))
         (P6 (_ BitVec 1))
         (Q6 (_ BitVec 1))
         (R6 (_ BitVec 1))
         (S6 (_ BitVec 1))
         (T6 (_ BitVec 1))
         (U6 (_ BitVec 32))
         (V6 (_ BitVec 1))
         (W6 (_ BitVec 1))
         (X6 (_ BitVec 6))
         (Y6 (_ BitVec 32))
         (Z6 (_ BitVec 30))
         (A7 (_ BitVec 32))
         (B7 (_ BitVec 1))
         (C7 (_ BitVec 1))
         (D7 (_ BitVec 1))
         (E7 (_ BitVec 4))
         (F7 (_ BitVec 1))
         (G7 (_ BitVec 1))
         (H7 (_ BitVec 1))
         (I7 (_ BitVec 1))
         (J7 (_ BitVec 1))
         (K7 (_ BitVec 1))
         (L7 (_ BitVec 1))
         (M7 (_ BitVec 1))
         (N7 (_ BitVec 1))
         (O7 (_ BitVec 1))
         (P7 (_ BitVec 6))
         (Q7 (Array (_ BitVec 4) (_ BitVec 8)))
         (R7 (_ BitVec 1))
         (S7 (_ BitVec 4))
         (T7 (_ BitVec 4))
         (U7 (_ BitVec 1))
         (V7 (_ BitVec 1))
         (W7 (_ BitVec 1))
         (X7 (_ BitVec 8))
         (Y7 (_ BitVec 8))
         (Z7 (_ BitVec 1))
         (A8 (_ BitVec 1))
         (B8 (_ BitVec 1))
         (C8 (_ BitVec 8))
         (D8 (_ BitVec 1))
         (E8 (_ BitVec 1))
         (F8 (_ BitVec 1))
         (G8 (_ BitVec 1))
         (H8 (_ BitVec 1))
         (I8 (_ BitVec 1))
         (J8 (_ BitVec 4))
         (K8 (_ BitVec 7))
         (L8 (_ BitVec 1))
         (M8 (_ BitVec 1))
         (N8 (_ BitVec 1))
         (O8 (_ BitVec 1))
         (P8 (_ BitVec 1))
         (Q8 (_ BitVec 1))
         (R8 (_ BitVec 32))
         (S8 (_ BitVec 32))
         (T8 (_ BitVec 1))
         (U8 (_ BitVec 1))
         (V8 (_ BitVec 5)))
  (! (let ((a!1 (or ((_ bit2bool 22) T2)
                    ((_ bit2bool 31) T2)
                    (not (= E2 #b0))
                    (not (= Z2 #b1))
                    (not (= ((_ extract 23 23) T2) #b1))
                    (not ((_ bit2bool 25) T2))
                    (not ((_ bit2bool 26) T2)))))
     (let ((a!2 (and (or (not (= X6 #b000000))
                         ((_ bit2bool 0) D2)
                         (not (= G5 #b1))
                         (not ((_ bit2bool 0) S1))
                         (= ((_ extract 26 22) T2) #b11110)
                         (not (= H1 #b0))
                         (not ((_ bit2bool 0) E2))
                         (= ((_ extract 26 23) T2) #xd)
                         (not ((_ bit2bool 30) T2))
                         (not ((_ bit2bool 29) T2))
                         (not ((_ bit2bool 28) T2)))
                     (= V2 #b0)
                     (= M3 #b0)
                     (or (not (= N1 #b1)) (not (= Z2 #b1)))
                     (or (= W3 #b0) (= A5 #b0))
                     (or (not ((_ bit2bool 0) T1)) (= Q1 #b0))
                     (or (not (= T5 #b1)) (= A5 #b0))
                     (or (= A5 #b0) (= D7 #b0))
                     (or (= A5 #b0) (= O5 #b0))
                     (or (= Q1 #b0) (= X6 #b000000))
                     (or (not (= K6 #b1)) (= Y5 #b0))
                     (or (= A5 #b0) (= A1 #b1))
                     (or (= Z2 #b0)
                         (not ((_ bit2bool 0) H))
                         (not ((_ bit2bool 0) G5)))
                     (or (not (= K6 #b1)) (= O3 #b0))
                     (or (not (= Z3 #b1)) (not (= U2 #b0)) (= B4 #b0))
                     (or (not ((_ bit2bool 0) M7)) (not ((_ bit2bool 0) N3)))
                     (or (= W3 #b0) (= R3 #b0))
                     (or (not (= K6 #b1)) (= X2 #b0))
                     (or (= Q1 #b0) (not (= S1 #b0)))
                     (or (not ((_ bit2bool 0) H)) (not (= E2 #b0)) (= Z2 #b0))
                     (or ((_ bit2bool 0) Z1)
                         (not (= U2 #b0))
                         (not ((_ bit2bool 0) B4)))
                     (or (not ((_ bit2bool 0) N3)) (= I8 #b0))
                     (or (not (= F3 #b1)) (not ((_ bit2bool 0) N3)))
                     (or (not (= G6 #b1)) (= Q1 #b0))
                     (or (not ((_ bit2bool 0) U5)) (not ((_ bit2bool 0) L7)))
                     (or (= E3 #b00)
                         ((_ bit2bool 0) G8)
                         (not ((_ bit2bool 0) G5))
                         (not ((_ bit2bool 0) I1)))
                     (or (= R4 #b000000) (= O3 #b0))
                     (or (= Q1 #b0) (not (= N7 #b1)))
                     (or (not (= N7 #b1)) (= E2 #b0))
                     (or (= X6 #b000000) (= Z2 #b0) (not ((_ bit2bool 0) G5)))
                     (or (= R3 #b0) (not (= N3 #b1)))
                     (or (= O3 #b0) (= R3 #b0))
                     (or (not (= X6 #b000000))
                         (= X2 #b0)
                         (not ((_ bit2bool 0) G8))
                         (not (= H1 #b0)))
                     (or (= ((_ extract 3 1) S2) #b111)
                         (not (= Z2 #b1))
                         (not (= G6 #b1)))
                     (or (not ((_ bit2bool 0) Q5)) (= Q1 #b0))
                     (or (= L7 #b0) (not (= N3 #b1)))
                     (or ((_ bit2bool 0) G8)
                         (not (= Z2 #b1))
                         (not ((_ bit2bool 0) G5))
                         (not (= H1 #b1)))
                     (or (not ((_ bit2bool 0) K5)) (not ((_ bit2bool 0) M7)))
                     (or (not (= Q5 #b1))
                         (not (= Z2 #b1))
                         (not ((_ bit2bool 0) G5)))
                     (or (not (= X6 #b000000))
                         (not ((_ bit2bool 0) G8))
                         (= O3 #b0)
                         (not (= H1 #b0)))
                     (or ((_ bit2bool 0) G8)
                         ((_ bit2bool 0) H)
                         (not (= E2 #b1))
                         (not ((_ bit2bool 0) I1)))
                     (or (= Q1 #b0) (not (= Z2 #b1)) (not ((_ bit2bool 25) T2)))
                     (or (not (= X6 #b000000))
                         (not (= G5 #b1))
                         (not ((_ bit2bool 0) S1))
                         (not (= H1 #b0))
                         (not ((_ bit2bool 0) E2))
                         (= ((_ extract 25 25) T2) #b1))
                     (or (not ((_ bit2bool 0) K5)) (not (= O3 #b1)))
                     (or (= Z1 #b1)
                         (not (= X6 #b000000))
                         (not ((_ bit2bool 0) G8))
                         (not (= H1 #b0)))
                     (or (= L7 #b0) (not ((_ bit2bool 0) K5)))
                     (or (not (= K6 #b1)) (= Z2 #b0))
                     (or (= T1 #b0) (= Z2 #b0) (not (= H1 #b1)))
                     (or (= L7 #b0) (= X4 #b0))
                     (or (not ((_ bit2bool 0) G8)) (not (= B7 #b1)))
                     (or (not (= Z3 #b1)) (not (= B4 #b0)) (= Q5 #b1))
                     (or (not (= X4 #b1)) (= R3 #b0))
                     (or (= ((_ extract 3 1) S2) #b111)
                         ((_ bit2bool 31) T2)
                         ((_ bit2bool 0) E2)
                         (not (= Z2 #b1))
                         (not ((_ bit2bool 25) T2))
                         (= ((_ extract 24 23) T2) #b00)
                         (not ((_ bit2bool 26) T2)))
                     (or (= E3 #b11) (= E3 #b00) (not ((_ bit2bool 0) M7)))
                     (or (not (= B5 #b1)) (= L7 #b0))
                     (or (= ((_ extract 3 1) A2) #b111)
                         (not ((_ bit2bool 6) A2)))
                     (or (not (= X6 #b000000))
                         ((_ bit2bool 26) T2)
                         ((_ bit2bool 31) T2)
                         ((_ bit2bool 0) E2)
                         (not ((_ bit2bool 1) S2))
                         (not ((_ bit2bool 3) S2))
                         (not ((_ bit2bool 2) S2))
                         (not ((_ bit2bool 0) S1))
                         (not ((_ bit2bool 25) T2))
                         (not ((_ bit2bool 23) T2))
                         (not ((_ bit2bool 24) T2)))
                     (or ((_ bit2bool 0) O3)
                         (not ((_ bit2bool 0) N3))
                         (not (= Y4 #b1)))
                     (or ((_ bit2bool 31) T2) (not (= B7 #b1)))
                     (or (not (= B7 #b1)) (= E2 #b0))
                     (or ((_ bit2bool 31) T2)
                         ((_ bit2bool 24) T2)
                         (not (= E2 #b0))
                         (not (= Z2 #b1))
                         (not ((_ bit2bool 25) T2))
                         (not ((_ bit2bool 26) T2))
                         (not ((_ bit2bool 23) T2)))
                     a!1
                     (or (= X6 #b000000)
                         (= I2 #b0)
                         ((_ bit2bool 31) T2)
                         (not (= Z2 #b1)))
                     (or (= ((_ extract 3 1) S2) #b111)
                         (= Z2 #b0)
                         ((_ bit2bool 31) T2)
                         (not ((_ bit2bool 30) T2))
                         (not ((_ bit2bool 29) T2))
                         (not ((_ bit2bool 28) T2)))
                     (or (= I2 #b0) (= T1 #b0) (= E2 #b0) (not (= Z2 #b1)))
                     (or ((_ bit2bool 31) T2) (not (= Q5 #b1)) (not (= Z2 #b1)))
                     (or (not ((_ bit2bool 0) G8)) (not (= E2 #b0)) (= Q1 #b0))
                     (or ((_ bit2bool 31) T2)
                         (not ((_ bit2bool 1) S2))
                         (not (= Z2 #b1))
                         (not ((_ bit2bool 3) S2))
                         (not ((_ bit2bool 2) S2))
                         (= ((_ extract 30 28) T2) #b111))
                     (or (not (= G5 #b1))
                         (not (= E2 #b0))
                         (not (= Z2 #b1))
                         (not (= H1 #b1)))
                     (or (= I2 #b0)
                         (= G5 #b1)
                         (= A1 #b1)
                         (not ((_ bit2bool 0) G8)))
                     (or ((_ bit2bool 26) T2)
                         ((_ bit2bool 31) T2)
                         ((_ bit2bool 0) E2)
                         (not ((_ bit2bool 1) S2))
                         (not (= Z2 #b1))
                         (not ((_ bit2bool 3) S2))
                         (not ((_ bit2bool 2) S2))
                         (not ((_ bit2bool 25) T2))
                         (not ((_ bit2bool 23) T2))
                         (not ((_ bit2bool 24) T2)))
                     (or (= E3 #b00) (= I2 #b0) (= G5 #b1) ((_ bit2bool 31) T2))
                     (or (not ((_ bit2bool 0) N3)) (= W3 #b0))
                     (or (= I2 #b0)
                         ((_ bit2bool 0) S1)
                         ((_ bit2bool 31) T2)
                         (not (= Z2 #b1)))
                     (or (= I2 #b0) (= G5 #b1) (= E2 #b0))
                     (or (not (= X6 #b000000))
                         (not (= G5 #b1))
                         (= E2 #b0)
                         (not ((_ bit2bool 0) S1))
                         (= ((_ extract 30 28) T2) #b111)
                         (= ((_ extract 26 25) T2) #b11)
                         (not (= H1 #b0)))
                     (or ((_ bit2bool 6) S2)
                         (not ((_ bit2bool 1) S2))
                         (not (= E2 #b1))
                         (not ((_ bit2bool 3) S2))
                         (not ((_ bit2bool 2) S2))
                         (not ((_ bit2bool 0) B4))
                         (= ((_ extract 4 0) S2) #b11111)
                         (not (= Z1 #b0)))
                     (or (not (= X6 #b000000))
                         (not (= G5 #b1))
                         (= E2 #b0)
                         (not ((_ bit2bool 0) S1))
                         (= ((_ extract 26 25) T2) #b11)
                         (= ((_ extract 26 23) T2) #x7)
                         (not (= H1 #b0)))
                     (or ((_ bit2bool 0) S1) (not (= G5 #b1)) (not (= Z2 #b1)))
                     (or (not (= G5 #b1))
                         (= E2 #b0)
                         (not (= Z2 #b1))
                         (not (= H1 #b0))
                         (not ((_ bit2bool 31) T2)))
                     (or (= Z1 #b1)
                         (= E2 #b0)
                         (= B4 #b0)
                         (not ((_ bit2bool 1) S2))
                         (not (= Z2 #b1))
                         (not ((_ bit2bool 3) S2))
                         (not ((_ bit2bool 2) S2))
                         (= ((_ extract 4 0) S2) #b11111)
                         (not ((_ bit2bool 27) T2)))
                     (or (not (= X6 #b000000))
                         ((_ bit2bool 23) T2)
                         (not (= G5 #b1))
                         ((_ bit2bool 24) T2)
                         (not ((_ bit2bool 0) S1))
                         (not (= H1 #b0))
                         (not ((_ bit2bool 0) E2)))
                     (or (not (= X6 #b000000))
                         (not (= G5 #b1))
                         (not ((_ bit2bool 0) S1))
                         (= ((_ extract 26 22) T2) #b11110)
                         (= ((_ extract 26 23) T2) #x7)
                         (not (= H1 #b0))
                         (not ((_ bit2bool 0) E2))
                         (= ((_ extract 26 23) T2) #xd)
                         (not ((_ bit2bool 30) T2))
                         (not ((_ bit2bool 29) T2))
                         (not ((_ bit2bool 28) T2))))))
       (= (INV!slice!1 A
                       B
                       C
                       D
                       E
                       F
                       G
                       H
                       I
                       J
                       K
                       L
                       M
                       N
                       O
                       P
                       Q
                       R
                       S
                       T
                       U
                       V
                       W
                       X
                       Y
                       Z
                       A1
                       B1
                       C1
                       D1
                       E1
                       F1
                       G1
                       H1
                       I1
                       J1
                       K1
                       L1
                       M1
                       N1
                       O1
                       P1
                       Q1
                       R1
                       S1
                       T1
                       U1
                       V1
                       W1
                       X1
                       Y1
                       Z1
                       A2
                       B2
                       C2
                       D2
                       E2
                       F2
                       G2
                       H2
                       I2
                       J2
                       K2
                       L2
                       M2
                       N2
                       O2
                       P2
                       Q2
                       R2
                       S2
                       T2
                       U2
                       V2
                       W2
                       X2
                       Y2
                       Z2
                       A3
                       B3
                       C3
                       D3
                       E3
                       F3
                       G3
                       H3
                       I3
                       J3
                       K3
                       L3
                       M3
                       N3
                       O3
                       P3
                       Q3
                       R3
                       S3
                       T3
                       U3
                       V3
                       W3
                       X3
                       Y3
                       Z3
                       A4
                       B4
                       C4
                       D4
                       E4
                       F4
                       G4
                       H4
                       I4
                       J4
                       K4
                       L4
                       M4
                       N4
                       O4
                       P4
                       Q4
                       R4
                       S4
                       T4
                       U4
                       V4
                       W4
                       X4
                       Y4
                       Z4
                       A5
                       B5
                       C5
                       D5
                       E5
                       F5
                       G5
                       H5
                       I5
                       J5
                       K5
                       L5
                       M5
                       N5
                       O5
                       P5
                       Q5
                       R5
                       S5
                       T5
                       U5
                       V5
                       W5
                       X5
                       Y5
                       Z5
                       A6
                       B6
                       C6
                       D6
                       E6
                       F6
                       G6
                       H6
                       I6
                       J6
                       K6
                       L6
                       M6
                       N6
                       O6
                       P6
                       Q6
                       R6
                       S6
                       T6
                       U6
                       V6
                       W6
                       X6
                       Y6
                       Z6
                       A7
                       B7
                       C7
                       D7
                       E7
                       F7
                       G7
                       H7
                       I7
                       J7
                       K7
                       L7
                       M7
                       N7
                       O7
                       P7
                       Q7
                       R7
                       S7
                       T7
                       U7
                       V7
                       W7
                       X7
                       Y7
                       Z7
                       A8
                       B8
                       C8
                       D8
                       E8
                       F8
                       G8
                       H8
                       I8
                       J8
                       K8
                       L8
                       M8
                       N8
                       O8
                       P8
                       Q8
                       R8
                       S8
                       T8
                       U8
                       V8)
          a!2)))
     :weight 0))
